\ENCODING=ISO-8859-1
\Problem name: ilog.cplex

Minimize
 obj1: 12 x_0_1_0 + 6 x_0_2_0 + 3 x_0_3_0 + 10 x_0_4_0 + 10 x_0_5_0 + 5 x_0_6_0
       + 4 x_0_7_0 + 11 x_0_8_0 + 5 x_0_9_0 + 12 x_1_0_0 + 6 x_2_0_0
       + 3 x_3_0_0 + 10 x_4_0_0 + 10 x_5_0_0 + 5 x_6_0_0 + 4 x_7_0_0
       + 11 x_8_0_0 + 5 x_9_0_0 + 12 x_0_1_1 + 6 x_0_2_1 + 3 x_0_3_1
       + 10 x_0_4_1 + 10 x_0_5_1 + 5 x_0_6_1 + 4 x_0_7_1 + 11 x_0_8_1
       + 5 x_0_9_1 + 12 x_1_0_1 + 6 x_2_0_1 + 3 x_3_0_1 + 10 x_4_0_1
       + 10 x_5_0_1 + 5 x_6_0_1 + 4 x_7_0_1 + 11 x_8_0_1 + 5 x_9_0_1
       + 12 x_0_1_2 + 6 x_0_2_2 + 3 x_0_3_2 + 10 x_0_4_2 + 10 x_0_5_2
       + 5 x_0_6_2 + 4 x_0_7_2 + 11 x_0_8_2 + 5 x_0_9_2 + 12 x_1_0_2
       + 6 x_2_0_2 + 3 x_3_0_2 + 10 x_4_0_2 + 10 x_5_0_2 + 5 x_6_0_2
       + 4 x_7_0_2 + 11 x_8_0_2 + 5 x_9_0_2 + 9 x_1_2_0 + 9 x_1_3_0 + 8 x_1_4_0
       + x_1_5_0 + 7 x_1_6_0 + 7 x_1_7_0 + 2 x_1_8_0 + 7 x_1_9_0 + 9 x_2_1_0
       + 9 x_3_1_0 + 8 x_4_1_0 + x_5_1_0 + 7 x_6_1_0 + 7 x_7_1_0 + 2 x_8_1_0
       + 7 x_9_1_0 + 9 x_1_2_1 + 9 x_1_3_1 + 8 x_1_4_1 + x_1_5_1 + 7 x_1_6_1
       + 7 x_1_7_1 + 2 x_1_8_1 + 7 x_1_9_1 + 9 x_2_1_1 + 9 x_3_1_1 + 8 x_4_1_1
       + x_5_1_1 + 7 x_6_1_1 + 7 x_7_1_1 + 2 x_8_1_1 + 7 x_9_1_1 + 9 x_1_2_2
       + 9 x_1_3_2 + 8 x_1_4_2 + x_1_5_2 + 7 x_1_6_2 + 7 x_1_7_2 + 2 x_1_8_2
       + 7 x_1_9_2 + 9 x_2_1_2 + 9 x_3_1_2 + 8 x_4_1_2 + x_5_1_2 + 7 x_6_1_2
       + 7 x_7_1_2 + 2 x_8_1_2 + 7 x_9_1_2 + 3 x_2_3_0 + 4 x_2_4_0 + 8 x_2_5_0
       + 5 x_2_6_0 + 4 x_2_7_0 + 10 x_2_8_0 + 6 x_2_9_0 + 3 x_3_2_0 + 4 x_4_2_0
       + 8 x_5_2_0 + 5 x_6_2_0 + 4 x_7_2_0 + 10 x_8_2_0 + 6 x_9_2_0 + 3 x_2_3_1
       + 4 x_2_4_1 + 8 x_2_5_1 + 5 x_2_6_1 + 4 x_2_7_1 + 10 x_2_8_1 + 6 x_2_9_1
       + 3 x_3_2_1 + 4 x_4_2_1 + 8 x_5_2_1 + 5 x_6_2_1 + 4 x_7_2_1 + 10 x_8_2_1
       + 6 x_9_2_1 + 3 x_2_3_2 + 4 x_2_4_2 + 8 x_2_5_2 + 5 x_2_6_2 + 4 x_2_7_2
       + 10 x_2_8_2 + 6 x_2_9_2 + 3 x_3_2_2 + 4 x_4_2_2 + 8 x_5_2_2 + 5 x_6_2_2
       + 4 x_7_2_2 + 10 x_8_2_2 + 6 x_9_2_2 + 7 x_3_4_0 + 8 x_3_5_0 + 3 x_3_6_0
       + 2 x_3_7_0 + 9 x_3_8_0 + 4 x_3_9_0 + 7 x_4_3_0 + 8 x_5_3_0 + 3 x_6_3_0
       + 2 x_7_3_0 + 9 x_8_3_0 + 4 x_9_3_0 + 7 x_3_4_1 + 8 x_3_5_1 + 3 x_3_6_1
       + 2 x_3_7_1 + 9 x_3_8_1 + 4 x_3_9_1 + 7 x_4_3_1 + 8 x_5_3_1 + 3 x_6_3_1
       + 2 x_7_3_1 + 9 x_8_3_1 + 4 x_9_3_1 + 7 x_3_4_2 + 8 x_3_5_2 + 3 x_3_6_2
       + 2 x_3_7_2 + 9 x_3_8_2 + 4 x_3_9_2 + 7 x_4_3_2 + 8 x_5_3_2 + 3 x_6_3_2
       + 2 x_7_3_2 + 9 x_8_3_2 + 4 x_9_3_2 + 7 x_4_5_0 + 7 x_4_6_0 + 7 x_4_7_0
       + 9 x_4_8_0 + 8 x_4_9_0 + 7 x_5_4_0 + 7 x_6_4_0 + 7 x_7_4_0 + 9 x_8_4_0
       + 8 x_9_4_0 + 7 x_4_5_1 + 7 x_4_6_1 + 7 x_4_7_1 + 9 x_4_8_1 + 8 x_4_9_1
       + 7 x_5_4_1 + 7 x_6_4_1 + 7 x_7_4_1 + 9 x_8_4_1 + 8 x_9_4_1 + 7 x_4_5_2
       + 7 x_4_6_2 + 7 x_4_7_2 + 9 x_4_8_2 + 8 x_4_9_2 + 7 x_5_4_2 + 7 x_6_4_2
       + 7 x_7_4_2 + 9 x_8_4_2 + 8 x_9_4_2 + 5 x_5_6_0 + 6 x_5_7_0 + 2 x_5_8_0
       + 5 x_5_9_0 + 5 x_6_5_0 + 6 x_7_5_0 + 2 x_8_5_0 + 5 x_9_5_0 + 5 x_5_6_1
       + 6 x_5_7_1 + 2 x_5_8_1 + 5 x_5_9_1 + 5 x_6_5_1 + 6 x_7_5_1 + 2 x_8_5_1
       + 5 x_9_5_1 + 5 x_5_6_2 + 6 x_5_7_2 + 2 x_5_8_2 + 5 x_5_9_2 + 5 x_6_5_2
       + 6 x_7_5_2 + 2 x_8_5_2 + 5 x_9_5_2 + x_6_7_0 + 6 x_6_8_0 + x_6_9_0
       + x_7_6_0 + 6 x_8_6_0 + x_9_6_0 + x_6_7_1 + 6 x_6_8_1 + x_6_9_1
       + x_7_6_1 + 6 x_8_6_1 + x_9_6_1 + x_6_7_2 + 6 x_6_8_2 + x_6_9_2
       + x_7_6_2 + 6 x_8_6_2 + x_9_6_2 + 7 x_7_8_0 + 2 x_7_9_0 + 7 x_8_7_0
       + 2 x_9_7_0 + 7 x_7_8_1 + 2 x_7_9_1 + 7 x_8_7_1 + 2 x_9_7_1 + 7 x_7_8_2
       + 2 x_7_9_2 + 7 x_8_7_2 + 2 x_9_7_2 + 6 x_8_9_0 + 6 x_9_8_0 + 6 x_8_9_1
       + 6 x_9_8_1 + 6 x_8_9_2 + 6 x_9_8_2
Subject To
 c1:         x_0_0_0  = 0
 c2:         x_0_0_1  = 0
 c3:         x_0_0_2  = 0
 c4:         x_1_1_0  = 0
 c5:         x_1_1_1  = 0
 c6:         x_1_1_2  = 0
 c7:         x_2_2_0  = 0
 c8:         x_2_2_1  = 0
 c9:         x_2_2_2  = 0
 c10:        x_3_3_0  = 0
 c11:        x_3_3_1  = 0
 c12:        x_3_3_2  = 0
 c13:        x_4_4_0  = 0
 c14:        x_4_4_1  = 0
 c15:        x_4_4_2  = 0
 c16:        x_5_5_0  = 0
 c17:        x_5_5_1  = 0
 c18:        x_5_5_2  = 0
 c19:        x_6_6_0  = 0
 c20:        x_6_6_1  = 0
 c21:        x_6_6_2  = 0
 c22:        x_7_7_0  = 0
 c23:        x_7_7_1  = 0
 c24:        x_7_7_2  = 0
 c25:        x_8_8_0  = 0
 c26:        x_8_8_1  = 0
 c27:        x_8_8_2  = 0
 c28:        x_9_9_0  = 0
 c29:        x_9_9_1  = 0
 c30:        x_9_9_2  = 0
 flow_0_0:   x_0_1_0 + x_0_2_0 + x_0_3_0 + x_0_4_0 + x_0_5_0 + x_0_6_0
             + x_0_7_0 + x_0_8_0 + x_0_9_0 - x_1_0_0 - x_2_0_0 - x_3_0_0
             - x_4_0_0 - x_5_0_0 - x_6_0_0 - x_7_0_0 - x_8_0_0 - x_9_0_0  = 0
 flow_0_1:   x_0_1_1 + x_0_2_1 + x_0_3_1 + x_0_4_1 + x_0_5_1 + x_0_6_1
             + x_0_7_1 + x_0_8_1 + x_0_9_1 - x_1_0_1 - x_2_0_1 - x_3_0_1
             - x_4_0_1 - x_5_0_1 - x_6_0_1 - x_7_0_1 - x_8_0_1 - x_9_0_1  = 0
 flow_0_2:   x_0_1_2 + x_0_2_2 + x_0_3_2 + x_0_4_2 + x_0_5_2 + x_0_6_2
             + x_0_7_2 + x_0_8_2 + x_0_9_2 - x_1_0_2 - x_2_0_2 - x_3_0_2
             - x_4_0_2 - x_5_0_2 - x_6_0_2 - x_7_0_2 - x_8_0_2 - x_9_0_2  = 0
 flow_1_0:   - x_0_1_0 + x_1_0_0 + x_1_2_0 + x_1_3_0 + x_1_4_0 + x_1_5_0
             + x_1_6_0 + x_1_7_0 + x_1_8_0 + x_1_9_0 - x_2_1_0 - x_3_1_0
             - x_4_1_0 - x_5_1_0 - x_6_1_0 - x_7_1_0 - x_8_1_0 - x_9_1_0  = 0
 flow_1_1:   - x_0_1_1 + x_1_0_1 + x_1_2_1 + x_1_3_1 + x_1_4_1 + x_1_5_1
             + x_1_6_1 + x_1_7_1 + x_1_8_1 + x_1_9_1 - x_2_1_1 - x_3_1_1
             - x_4_1_1 - x_5_1_1 - x_6_1_1 - x_7_1_1 - x_8_1_1 - x_9_1_1  = 0
 flow_1_2:   - x_0_1_2 + x_1_0_2 + x_1_2_2 + x_1_3_2 + x_1_4_2 + x_1_5_2
             + x_1_6_2 + x_1_7_2 + x_1_8_2 + x_1_9_2 - x_2_1_2 - x_3_1_2
             - x_4_1_2 - x_5_1_2 - x_6_1_2 - x_7_1_2 - x_8_1_2 - x_9_1_2  = 0
 flow_2_0:   - x_0_2_0 + x_2_0_0 - x_1_2_0 + x_2_1_0 + x_2_3_0 + x_2_4_0
             + x_2_5_0 + x_2_6_0 + x_2_7_0 + x_2_8_0 + x_2_9_0 - x_3_2_0
             - x_4_2_0 - x_5_2_0 - x_6_2_0 - x_7_2_0 - x_8_2_0 - x_9_2_0  = 0
 flow_2_1:   - x_0_2_1 + x_2_0_1 - x_1_2_1 + x_2_1_1 + x_2_3_1 + x_2_4_1
             + x_2_5_1 + x_2_6_1 + x_2_7_1 + x_2_8_1 + x_2_9_1 - x_3_2_1
             - x_4_2_1 - x_5_2_1 - x_6_2_1 - x_7_2_1 - x_8_2_1 - x_9_2_1  = 0
 flow_2_2:   - x_0_2_2 + x_2_0_2 - x_1_2_2 + x_2_1_2 + x_2_3_2 + x_2_4_2
             + x_2_5_2 + x_2_6_2 + x_2_7_2 + x_2_8_2 + x_2_9_2 - x_3_2_2
             - x_4_2_2 - x_5_2_2 - x_6_2_2 - x_7_2_2 - x_8_2_2 - x_9_2_2  = 0
 flow_3_0:   - x_0_3_0 + x_3_0_0 - x_1_3_0 + x_3_1_0 - x_2_3_0 + x_3_2_0
             + x_3_4_0 + x_3_5_0 + x_3_6_0 + x_3_7_0 + x_3_8_0 + x_3_9_0
             - x_4_3_0 - x_5_3_0 - x_6_3_0 - x_7_3_0 - x_8_3_0 - x_9_3_0  = 0
 flow_3_1:   - x_0_3_1 + x_3_0_1 - x_1_3_1 + x_3_1_1 - x_2_3_1 + x_3_2_1
             + x_3_4_1 + x_3_5_1 + x_3_6_1 + x_3_7_1 + x_3_8_1 + x_3_9_1
             - x_4_3_1 - x_5_3_1 - x_6_3_1 - x_7_3_1 - x_8_3_1 - x_9_3_1  = 0
 flow_3_2:   - x_0_3_2 + x_3_0_2 - x_1_3_2 + x_3_1_2 - x_2_3_2 + x_3_2_2
             + x_3_4_2 + x_3_5_2 + x_3_6_2 + x_3_7_2 + x_3_8_2 + x_3_9_2
             - x_4_3_2 - x_5_3_2 - x_6_3_2 - x_7_3_2 - x_8_3_2 - x_9_3_2  = 0
 flow_4_0:   - x_0_4_0 + x_4_0_0 - x_1_4_0 + x_4_1_0 - x_2_4_0 + x_4_2_0
             - x_3_4_0 + x_4_3_0 + x_4_5_0 + x_4_6_0 + x_4_7_0 + x_4_8_0
             + x_4_9_0 - x_5_4_0 - x_6_4_0 - x_7_4_0 - x_8_4_0 - x_9_4_0  = 0
 flow_4_1:   - x_0_4_1 + x_4_0_1 - x_1_4_1 + x_4_1_1 - x_2_4_1 + x_4_2_1
             - x_3_4_1 + x_4_3_1 + x_4_5_1 + x_4_6_1 + x_4_7_1 + x_4_8_1
             + x_4_9_1 - x_5_4_1 - x_6_4_1 - x_7_4_1 - x_8_4_1 - x_9_4_1  = 0
 flow_4_2:   - x_0_4_2 + x_4_0_2 - x_1_4_2 + x_4_1_2 - x_2_4_2 + x_4_2_2
             - x_3_4_2 + x_4_3_2 + x_4_5_2 + x_4_6_2 + x_4_7_2 + x_4_8_2
             + x_4_9_2 - x_5_4_2 - x_6_4_2 - x_7_4_2 - x_8_4_2 - x_9_4_2  = 0
 flow_5_0:   - x_0_5_0 + x_5_0_0 - x_1_5_0 + x_5_1_0 - x_2_5_0 + x_5_2_0
             - x_3_5_0 + x_5_3_0 - x_4_5_0 + x_5_4_0 + x_5_6_0 + x_5_7_0
             + x_5_8_0 + x_5_9_0 - x_6_5_0 - x_7_5_0 - x_8_5_0 - x_9_5_0  = 0
 flow_5_1:   - x_0_5_1 + x_5_0_1 - x_1_5_1 + x_5_1_1 - x_2_5_1 + x_5_2_1
             - x_3_5_1 + x_5_3_1 - x_4_5_1 + x_5_4_1 + x_5_6_1 + x_5_7_1
             + x_5_8_1 + x_5_9_1 - x_6_5_1 - x_7_5_1 - x_8_5_1 - x_9_5_1  = 0
 flow_5_2:   - x_0_5_2 + x_5_0_2 - x_1_5_2 + x_5_1_2 - x_2_5_2 + x_5_2_2
             - x_3_5_2 + x_5_3_2 - x_4_5_2 + x_5_4_2 + x_5_6_2 + x_5_7_2
             + x_5_8_2 + x_5_9_2 - x_6_5_2 - x_7_5_2 - x_8_5_2 - x_9_5_2  = 0
 flow_6_0:   - x_0_6_0 + x_6_0_0 - x_1_6_0 + x_6_1_0 - x_2_6_0 + x_6_2_0
             - x_3_6_0 + x_6_3_0 - x_4_6_0 + x_6_4_0 - x_5_6_0 + x_6_5_0
             + x_6_7_0 + x_6_8_0 + x_6_9_0 - x_7_6_0 - x_8_6_0 - x_9_6_0  = 0
 flow_6_1:   - x_0_6_1 + x_6_0_1 - x_1_6_1 + x_6_1_1 - x_2_6_1 + x_6_2_1
             - x_3_6_1 + x_6_3_1 - x_4_6_1 + x_6_4_1 - x_5_6_1 + x_6_5_1
             + x_6_7_1 + x_6_8_1 + x_6_9_1 - x_7_6_1 - x_8_6_1 - x_9_6_1  = 0
 flow_6_2:   - x_0_6_2 + x_6_0_2 - x_1_6_2 + x_6_1_2 - x_2_6_2 + x_6_2_2
             - x_3_6_2 + x_6_3_2 - x_4_6_2 + x_6_4_2 - x_5_6_2 + x_6_5_2
             + x_6_7_2 + x_6_8_2 + x_6_9_2 - x_7_6_2 - x_8_6_2 - x_9_6_2  = 0
 flow_7_0:   - x_0_7_0 + x_7_0_0 - x_1_7_0 + x_7_1_0 - x_2_7_0 + x_7_2_0
             - x_3_7_0 + x_7_3_0 - x_4_7_0 + x_7_4_0 - x_5_7_0 + x_7_5_0
             - x_6_7_0 + x_7_6_0 + x_7_8_0 + x_7_9_0 - x_8_7_0 - x_9_7_0  = 0
 flow_7_1:   - x_0_7_1 + x_7_0_1 - x_1_7_1 + x_7_1_1 - x_2_7_1 + x_7_2_1
             - x_3_7_1 + x_7_3_1 - x_4_7_1 + x_7_4_1 - x_5_7_1 + x_7_5_1
             - x_6_7_1 + x_7_6_1 + x_7_8_1 + x_7_9_1 - x_8_7_1 - x_9_7_1  = 0
 flow_7_2:   - x_0_7_2 + x_7_0_2 - x_1_7_2 + x_7_1_2 - x_2_7_2 + x_7_2_2
             - x_3_7_2 + x_7_3_2 - x_4_7_2 + x_7_4_2 - x_5_7_2 + x_7_5_2
             - x_6_7_2 + x_7_6_2 + x_7_8_2 + x_7_9_2 - x_8_7_2 - x_9_7_2  = 0
 flow_8_0:   - x_0_8_0 + x_8_0_0 - x_1_8_0 + x_8_1_0 - x_2_8_0 + x_8_2_0
             - x_3_8_0 + x_8_3_0 - x_4_8_0 + x_8_4_0 - x_5_8_0 + x_8_5_0
             - x_6_8_0 + x_8_6_0 - x_7_8_0 + x_8_7_0 + x_8_9_0 - x_9_8_0  = 0
 flow_8_1:   - x_0_8_1 + x_8_0_1 - x_1_8_1 + x_8_1_1 - x_2_8_1 + x_8_2_1
             - x_3_8_1 + x_8_3_1 - x_4_8_1 + x_8_4_1 - x_5_8_1 + x_8_5_1
             - x_6_8_1 + x_8_6_1 - x_7_8_1 + x_8_7_1 + x_8_9_1 - x_9_8_1  = 0
 flow_8_2:   - x_0_8_2 + x_8_0_2 - x_1_8_2 + x_8_1_2 - x_2_8_2 + x_8_2_2
             - x_3_8_2 + x_8_3_2 - x_4_8_2 + x_8_4_2 - x_5_8_2 + x_8_5_2
             - x_6_8_2 + x_8_6_2 - x_7_8_2 + x_8_7_2 + x_8_9_2 - x_9_8_2  = 0
 flow_9_0:   - x_0_9_0 + x_9_0_0 - x_1_9_0 + x_9_1_0 - x_2_9_0 + x_9_2_0
             - x_3_9_0 + x_9_3_0 - x_4_9_0 + x_9_4_0 - x_5_9_0 + x_9_5_0
             - x_6_9_0 + x_9_6_0 - x_7_9_0 + x_9_7_0 - x_8_9_0 + x_9_8_0  = 0
 flow_9_1:   - x_0_9_1 + x_9_0_1 - x_1_9_1 + x_9_1_1 - x_2_9_1 + x_9_2_1
             - x_3_9_1 + x_9_3_1 - x_4_9_1 + x_9_4_1 - x_5_9_1 + x_9_5_1
             - x_6_9_1 + x_9_6_1 - x_7_9_1 + x_9_7_1 - x_8_9_1 + x_9_8_1  = 0
 flow_9_2:   - x_0_9_2 + x_9_0_2 - x_1_9_2 + x_9_1_2 - x_2_9_2 + x_9_2_2
             - x_3_9_2 + x_9_3_2 - x_4_9_2 + x_9_4_2 - x_5_9_2 + x_9_5_2
             - x_6_9_2 + x_9_6_2 - x_7_9_2 + x_9_7_2 - x_8_9_2 + x_9_8_2  = 0
 serving_0:  y_0_2 + y_0_1 + y_0_0  = 1
 serving_1:  y_1_2 + y_1_1 + y_1_0  = 1
 serving_2:  y_2_2 + y_2_1 + y_2_0  = 1
 serving_3:  y_3_2 + y_3_1 + y_3_0  = 1
 serving_4:  y_4_2 + y_4_1 + y_4_0  = 1
 serving_5:  y_5_2 + y_5_1 + y_5_0  = 1
 serving_6:  y_6_2 + y_6_1 + y_6_0  = 1
 depot_0:    x_0_0_0 + x_0_1_0 + x_0_2_0 + x_0_3_0 + x_0_4_0 + x_0_5_0
             + x_0_6_0 + x_0_7_0 + x_0_8_0 + x_0_9_0 <= 1
 depot_1:    x_0_0_1 + x_0_1_1 + x_0_2_1 + x_0_3_1 + x_0_4_1 + x_0_5_1
             + x_0_6_1 + x_0_7_1 + x_0_8_1 + x_0_9_1 <= 1
 depot_2:    x_0_0_2 + x_0_1_2 + x_0_2_2 + x_0_3_2 + x_0_4_2 + x_0_5_2
             + x_0_6_2 + x_0_7_2 + x_0_8_2 + x_0_9_2 <= 1
 visit_0_0:  - x_2_2_0 - x_0_2_0 - x_1_2_0 - x_3_2_0 - x_4_2_0 - x_5_2_0
             - x_6_2_0 - x_7_2_0 - x_8_2_0 - x_9_2_0 + y_0_0 <= 0
 visit_0_1:  - x_2_2_1 - x_0_2_1 - x_1_2_1 - x_3_2_1 - x_4_2_1 - x_5_2_1
             - x_6_2_1 - x_7_2_1 - x_8_2_1 - x_9_2_1 + y_0_1 <= 0
 visit_0_2:  - x_2_2_2 - x_0_2_2 - x_1_2_2 - x_3_2_2 - x_4_2_2 - x_5_2_2
             - x_6_2_2 - x_7_2_2 - x_8_2_2 - x_9_2_2 + y_0_2 <= 0
 visit_1_0:  - x_4_4_0 - x_0_4_0 - x_1_4_0 - x_2_4_0 - x_3_4_0 - x_5_4_0
             - x_6_4_0 - x_7_4_0 - x_8_4_0 - x_9_4_0 + y_1_0 <= 0
 visit_1_1:  - x_4_4_1 - x_0_4_1 - x_1_4_1 - x_2_4_1 - x_3_4_1 - x_5_4_1
             - x_6_4_1 - x_7_4_1 - x_8_4_1 - x_9_4_1 + y_1_1 <= 0
 visit_1_2:  - x_4_4_2 - x_0_4_2 - x_1_4_2 - x_2_4_2 - x_3_4_2 - x_5_4_2
             - x_6_4_2 - x_7_4_2 - x_8_4_2 - x_9_4_2 + y_1_2 <= 0
 visit_2_0:  - x_1_1_0 - x_5_5_0 - x_0_1_0 - x_0_5_0 - x_1_5_0 - x_2_1_0
             - x_3_1_0 - x_4_1_0 - x_5_1_0 - x_6_1_0 - x_7_1_0 - x_8_1_0
             - x_9_1_0 - x_2_5_0 - x_3_5_0 - x_4_5_0 - x_6_5_0 - x_7_5_0
             - x_8_5_0 - x_9_5_0 + y_2_0 <= 0
 visit_2_1:  - x_1_1_1 - x_5_5_1 - x_0_1_1 - x_0_5_1 - x_1_5_1 - x_2_1_1
             - x_3_1_1 - x_4_1_1 - x_5_1_1 - x_6_1_1 - x_7_1_1 - x_8_1_1
             - x_9_1_1 - x_2_5_1 - x_3_5_1 - x_4_5_1 - x_6_5_1 - x_7_5_1
             - x_8_5_1 - x_9_5_1 + y_2_1 <= 0
 visit_2_2:  - x_1_1_2 - x_5_5_2 - x_0_1_2 - x_0_5_2 - x_1_5_2 - x_2_1_2
             - x_3_1_2 - x_4_1_2 - x_5_1_2 - x_6_1_2 - x_7_1_2 - x_8_1_2
             - x_9_1_2 - x_2_5_2 - x_3_5_2 - x_4_5_2 - x_6_5_2 - x_7_5_2
             - x_8_5_2 - x_9_5_2 + y_2_2 <= 0
 visit_3_0:  - x_6_6_0 - x_7_7_0 - x_9_9_0 - x_0_6_0 - x_0_7_0 - x_0_9_0
             - x_1_6_0 - x_1_7_0 - x_1_9_0 - x_2_6_0 - x_2_7_0 - x_2_9_0
             - x_3_6_0 - x_3_7_0 - x_3_9_0 - x_4_6_0 - x_4_7_0 - x_4_9_0
             - x_5_6_0 - x_5_7_0 - x_5_9_0 - x_6_7_0 - x_6_9_0 - x_7_6_0
             - x_8_6_0 - x_9_6_0 - x_7_9_0 - x_8_7_0 - x_9_7_0 - x_8_9_0
             + y_3_0 <= 0
 visit_3_1:  - x_6_6_1 - x_7_7_1 - x_9_9_1 - x_0_6_1 - x_0_7_1 - x_0_9_1
             - x_1_6_1 - x_1_7_1 - x_1_9_1 - x_2_6_1 - x_2_7_1 - x_2_9_1
             - x_3_6_1 - x_3_7_1 - x_3_9_1 - x_4_6_1 - x_4_7_1 - x_4_9_1
             - x_5_6_1 - x_5_7_1 - x_5_9_1 - x_6_7_1 - x_6_9_1 - x_7_6_1
             - x_8_6_1 - x_9_6_1 - x_7_9_1 - x_8_7_1 - x_9_7_1 - x_8_9_1
             + y_3_1 <= 0
 visit_3_2:  - x_6_6_2 - x_7_7_2 - x_9_9_2 - x_0_6_2 - x_0_7_2 - x_0_9_2
             - x_1_6_2 - x_1_7_2 - x_1_9_2 - x_2_6_2 - x_2_7_2 - x_2_9_2
             - x_3_6_2 - x_3_7_2 - x_3_9_2 - x_4_6_2 - x_4_7_2 - x_4_9_2
             - x_5_6_2 - x_5_7_2 - x_5_9_2 - x_6_7_2 - x_6_9_2 - x_7_6_2
             - x_8_6_2 - x_9_6_2 - x_7_9_2 - x_8_7_2 - x_9_7_2 - x_8_9_2
             + y_3_2 <= 0
 visit_4_0:  - x_3_3_0 - x_6_6_0 - x_7_7_0 - x_0_3_0 - x_0_6_0 - x_0_7_0
             - x_1_3_0 - x_1_6_0 - x_1_7_0 - x_2_3_0 - x_2_6_0 - x_2_7_0
             - x_3_6_0 - x_3_7_0 - x_4_3_0 - x_5_3_0 - x_6_3_0 - x_7_3_0
             - x_8_3_0 - x_9_3_0 - x_4_6_0 - x_4_7_0 - x_5_6_0 - x_5_7_0
             - x_6_7_0 - x_7_6_0 - x_8_6_0 - x_9_6_0 - x_8_7_0 - x_9_7_0
             + y_4_0 <= 0
 visit_4_1:  - x_3_3_1 - x_6_6_1 - x_7_7_1 - x_0_3_1 - x_0_6_1 - x_0_7_1
             - x_1_3_1 - x_1_6_1 - x_1_7_1 - x_2_3_1 - x_2_6_1 - x_2_7_1
             - x_3_6_1 - x_3_7_1 - x_4_3_1 - x_5_3_1 - x_6_3_1 - x_7_3_1
             - x_8_3_1 - x_9_3_1 - x_4_6_1 - x_4_7_1 - x_5_6_1 - x_5_7_1
             - x_6_7_1 - x_7_6_1 - x_8_6_1 - x_9_6_1 - x_8_7_1 - x_9_7_1
             + y_4_1 <= 0
 visit_4_2:  - x_3_3_2 - x_6_6_2 - x_7_7_2 - x_0_3_2 - x_0_6_2 - x_0_7_2
             - x_1_3_2 - x_1_6_2 - x_1_7_2 - x_2_3_2 - x_2_6_2 - x_2_7_2
             - x_3_6_2 - x_3_7_2 - x_4_3_2 - x_5_3_2 - x_6_3_2 - x_7_3_2
             - x_8_3_2 - x_9_3_2 - x_4_6_2 - x_4_7_2 - x_5_6_2 - x_5_7_2
             - x_6_7_2 - x_7_6_2 - x_8_6_2 - x_9_6_2 - x_8_7_2 - x_9_7_2
             + y_4_2 <= 0
 visit_5_0:  - x_8_8_0 - x_0_8_0 - x_1_8_0 - x_2_8_0 - x_3_8_0 - x_4_8_0
             - x_5_8_0 - x_6_8_0 - x_7_8_0 - x_9_8_0 + y_5_0 <= 0
 visit_5_1:  - x_8_8_1 - x_0_8_1 - x_1_8_1 - x_2_8_1 - x_3_8_1 - x_4_8_1
             - x_5_8_1 - x_6_8_1 - x_7_8_1 - x_9_8_1 + y_5_1 <= 0
 visit_5_2:  - x_8_8_2 - x_0_8_2 - x_1_8_2 - x_2_8_2 - x_3_8_2 - x_4_8_2
             - x_5_8_2 - x_6_8_2 - x_7_8_2 - x_9_8_2 + y_5_2 <= 0
 visit_6_0:  - x_6_6_0 - x_9_9_0 - x_0_6_0 - x_0_9_0 - x_1_6_0 - x_1_9_0
             - x_2_6_0 - x_2_9_0 - x_3_6_0 - x_3_9_0 - x_4_6_0 - x_4_9_0
             - x_5_6_0 - x_5_9_0 - x_6_9_0 - x_7_6_0 - x_8_6_0 - x_9_6_0
             - x_7_9_0 - x_8_9_0 + y_6_0 <= 0
 visit_6_1:  - x_6_6_1 - x_9_9_1 - x_0_6_1 - x_0_9_1 - x_1_6_1 - x_1_9_1
             - x_2_6_1 - x_2_9_1 - x_3_6_1 - x_3_9_1 - x_4_6_1 - x_4_9_1
             - x_5_6_1 - x_5_9_1 - x_6_9_1 - x_7_6_1 - x_8_6_1 - x_9_6_1
             - x_7_9_1 - x_8_9_1 + y_6_1 <= 0
 visit_6_2:  - x_6_6_2 - x_9_9_2 - x_0_6_2 - x_0_9_2 - x_1_6_2 - x_1_9_2
             - x_2_6_2 - x_2_9_2 - x_3_6_2 - x_3_9_2 - x_4_6_2 - x_4_9_2
             - x_5_6_2 - x_5_9_2 - x_6_9_2 - x_7_6_2 - x_8_6_2 - x_9_6_2
             - x_7_9_2 - x_8_9_2 + y_6_2 <= 0
 capacity_0: 16 y_0_0 + 73 y_1_0 + 13 y_2_0 + 94 y_3_0 + 35 y_4_0 + 42 y_5_0
             + 79 y_6_0 <= 134
 capacity_1: 16 y_0_1 + 73 y_1_1 + 13 y_2_1 + 94 y_3_1 + 35 y_4_1 + 42 y_5_1
             + 79 y_6_1 <= 134
 capacity_2: 16 y_0_2 + 73 y_1_2 + 13 y_2_2 + 94 y_3_2 + 35 y_4_2 + 42 y_5_2
             + 79 y_6_2 <= 134
 mtz_1_2_0:  9 x_1_2_0 + u_1_0 - u_2_0 <= 8
 mtz_1_2_1:  9 x_1_2_1 + u_1_1 - u_2_1 <= 8
 mtz_1_2_2:  9 x_1_2_2 + u_1_2 - u_2_2 <= 8
 mtz_1_3_0:  9 x_1_3_0 + u_1_0 - u_3_0 <= 8
 mtz_1_3_1:  9 x_1_3_1 + u_1_1 - u_3_1 <= 8
 mtz_1_3_2:  9 x_1_3_2 + u_1_2 - u_3_2 <= 8
 mtz_1_4_0:  9 x_1_4_0 + u_1_0 - u_4_0 <= 8
 mtz_1_4_1:  9 x_1_4_1 + u_1_1 - u_4_1 <= 8
 mtz_1_4_2:  9 x_1_4_2 + u_1_2 - u_4_2 <= 8
 mtz_1_5_0:  9 x_1_5_0 + u_1_0 - u_5_0 <= 8
 mtz_1_5_1:  9 x_1_5_1 + u_1_1 - u_5_1 <= 8
 mtz_1_5_2:  9 x_1_5_2 + u_1_2 - u_5_2 <= 8
 mtz_1_6_0:  9 x_1_6_0 + u_1_0 - u_6_0 <= 8
 mtz_1_6_1:  9 x_1_6_1 + u_1_1 - u_6_1 <= 8
 mtz_1_6_2:  9 x_1_6_2 + u_1_2 - u_6_2 <= 8
 mtz_1_7_0:  9 x_1_7_0 + u_1_0 - u_7_0 <= 8
 mtz_1_7_1:  9 x_1_7_1 + u_1_1 - u_7_1 <= 8
 mtz_1_7_2:  9 x_1_7_2 + u_1_2 - u_7_2 <= 8
 mtz_1_8_0:  9 x_1_8_0 + u_1_0 - u_8_0 <= 8
 mtz_1_8_1:  9 x_1_8_1 + u_1_1 - u_8_1 <= 8
 mtz_1_8_2:  9 x_1_8_2 + u_1_2 - u_8_2 <= 8
 mtz_1_9_0:  9 x_1_9_0 + u_1_0 - u_9_0 <= 8
 mtz_1_9_1:  9 x_1_9_1 + u_1_1 - u_9_1 <= 8
 mtz_1_9_2:  9 x_1_9_2 + u_1_2 - u_9_2 <= 8
 mtz_2_1_0:  9 x_2_1_0 - u_1_0 + u_2_0 <= 8
 mtz_2_1_1:  9 x_2_1_1 - u_1_1 + u_2_1 <= 8
 mtz_2_1_2:  9 x_2_1_2 - u_1_2 + u_2_2 <= 8
 mtz_2_3_0:  9 x_2_3_0 + u_2_0 - u_3_0 <= 8
 mtz_2_3_1:  9 x_2_3_1 + u_2_1 - u_3_1 <= 8
 mtz_2_3_2:  9 x_2_3_2 + u_2_2 - u_3_2 <= 8
 mtz_2_4_0:  9 x_2_4_0 + u_2_0 - u_4_0 <= 8
 mtz_2_4_1:  9 x_2_4_1 + u_2_1 - u_4_1 <= 8
 mtz_2_4_2:  9 x_2_4_2 + u_2_2 - u_4_2 <= 8
 mtz_2_5_0:  9 x_2_5_0 + u_2_0 - u_5_0 <= 8
 mtz_2_5_1:  9 x_2_5_1 + u_2_1 - u_5_1 <= 8
 mtz_2_5_2:  9 x_2_5_2 + u_2_2 - u_5_2 <= 8
 mtz_2_6_0:  9 x_2_6_0 + u_2_0 - u_6_0 <= 8
 mtz_2_6_1:  9 x_2_6_1 + u_2_1 - u_6_1 <= 8
 mtz_2_6_2:  9 x_2_6_2 + u_2_2 - u_6_2 <= 8
 mtz_2_7_0:  9 x_2_7_0 + u_2_0 - u_7_0 <= 8
 mtz_2_7_1:  9 x_2_7_1 + u_2_1 - u_7_1 <= 8
 mtz_2_7_2:  9 x_2_7_2 + u_2_2 - u_7_2 <= 8
 mtz_2_8_0:  9 x_2_8_0 + u_2_0 - u_8_0 <= 8
 mtz_2_8_1:  9 x_2_8_1 + u_2_1 - u_8_1 <= 8
 mtz_2_8_2:  9 x_2_8_2 + u_2_2 - u_8_2 <= 8
 mtz_2_9_0:  9 x_2_9_0 + u_2_0 - u_9_0 <= 8
 mtz_2_9_1:  9 x_2_9_1 + u_2_1 - u_9_1 <= 8
 mtz_2_9_2:  9 x_2_9_2 + u_2_2 - u_9_2 <= 8
 mtz_3_1_0:  9 x_3_1_0 - u_1_0 + u_3_0 <= 8
 mtz_3_1_1:  9 x_3_1_1 - u_1_1 + u_3_1 <= 8
 mtz_3_1_2:  9 x_3_1_2 - u_1_2 + u_3_2 <= 8
 mtz_3_2_0:  9 x_3_2_0 - u_2_0 + u_3_0 <= 8
 mtz_3_2_1:  9 x_3_2_1 - u_2_1 + u_3_1 <= 8
 mtz_3_2_2:  9 x_3_2_2 - u_2_2 + u_3_2 <= 8
 mtz_3_4_0:  9 x_3_4_0 + u_3_0 - u_4_0 <= 8
 mtz_3_4_1:  9 x_3_4_1 + u_3_1 - u_4_1 <= 8
 mtz_3_4_2:  9 x_3_4_2 + u_3_2 - u_4_2 <= 8
 mtz_3_5_0:  9 x_3_5_0 + u_3_0 - u_5_0 <= 8
 mtz_3_5_1:  9 x_3_5_1 + u_3_1 - u_5_1 <= 8
 mtz_3_5_2:  9 x_3_5_2 + u_3_2 - u_5_2 <= 8
 mtz_3_6_0:  9 x_3_6_0 + u_3_0 - u_6_0 <= 8
 mtz_3_6_1:  9 x_3_6_1 + u_3_1 - u_6_1 <= 8
 mtz_3_6_2:  9 x_3_6_2 + u_3_2 - u_6_2 <= 8
 mtz_3_7_0:  9 x_3_7_0 + u_3_0 - u_7_0 <= 8
 mtz_3_7_1:  9 x_3_7_1 + u_3_1 - u_7_1 <= 8
 mtz_3_7_2:  9 x_3_7_2 + u_3_2 - u_7_2 <= 8
 mtz_3_8_0:  9 x_3_8_0 + u_3_0 - u_8_0 <= 8
 mtz_3_8_1:  9 x_3_8_1 + u_3_1 - u_8_1 <= 8
 mtz_3_8_2:  9 x_3_8_2 + u_3_2 - u_8_2 <= 8
 mtz_3_9_0:  9 x_3_9_0 + u_3_0 - u_9_0 <= 8
 mtz_3_9_1:  9 x_3_9_1 + u_3_1 - u_9_1 <= 8
 mtz_3_9_2:  9 x_3_9_2 + u_3_2 - u_9_2 <= 8
 mtz_4_1_0:  9 x_4_1_0 - u_1_0 + u_4_0 <= 8
 mtz_4_1_1:  9 x_4_1_1 - u_1_1 + u_4_1 <= 8
 mtz_4_1_2:  9 x_4_1_2 - u_1_2 + u_4_2 <= 8
 mtz_4_2_0:  9 x_4_2_0 - u_2_0 + u_4_0 <= 8
 mtz_4_2_1:  9 x_4_2_1 - u_2_1 + u_4_1 <= 8
 mtz_4_2_2:  9 x_4_2_2 - u_2_2 + u_4_2 <= 8
 mtz_4_3_0:  9 x_4_3_0 - u_3_0 + u_4_0 <= 8
 mtz_4_3_1:  9 x_4_3_1 - u_3_1 + u_4_1 <= 8
 mtz_4_3_2:  9 x_4_3_2 - u_3_2 + u_4_2 <= 8
 mtz_4_5_0:  9 x_4_5_0 + u_4_0 - u_5_0 <= 8
 mtz_4_5_1:  9 x_4_5_1 + u_4_1 - u_5_1 <= 8
 mtz_4_5_2:  9 x_4_5_2 + u_4_2 - u_5_2 <= 8
 mtz_4_6_0:  9 x_4_6_0 + u_4_0 - u_6_0 <= 8
 mtz_4_6_1:  9 x_4_6_1 + u_4_1 - u_6_1 <= 8
 mtz_4_6_2:  9 x_4_6_2 + u_4_2 - u_6_2 <= 8
 mtz_4_7_0:  9 x_4_7_0 + u_4_0 - u_7_0 <= 8
 mtz_4_7_1:  9 x_4_7_1 + u_4_1 - u_7_1 <= 8
 mtz_4_7_2:  9 x_4_7_2 + u_4_2 - u_7_2 <= 8
 mtz_4_8_0:  9 x_4_8_0 + u_4_0 - u_8_0 <= 8
 mtz_4_8_1:  9 x_4_8_1 + u_4_1 - u_8_1 <= 8
 mtz_4_8_2:  9 x_4_8_2 + u_4_2 - u_8_2 <= 8
 mtz_4_9_0:  9 x_4_9_0 + u_4_0 - u_9_0 <= 8
 mtz_4_9_1:  9 x_4_9_1 + u_4_1 - u_9_1 <= 8
 mtz_4_9_2:  9 x_4_9_2 + u_4_2 - u_9_2 <= 8
 mtz_5_1_0:  9 x_5_1_0 - u_1_0 + u_5_0 <= 8
 mtz_5_1_1:  9 x_5_1_1 - u_1_1 + u_5_1 <= 8
 mtz_5_1_2:  9 x_5_1_2 - u_1_2 + u_5_2 <= 8
 mtz_5_2_0:  9 x_5_2_0 - u_2_0 + u_5_0 <= 8
 mtz_5_2_1:  9 x_5_2_1 - u_2_1 + u_5_1 <= 8
 mtz_5_2_2:  9 x_5_2_2 - u_2_2 + u_5_2 <= 8
 mtz_5_3_0:  9 x_5_3_0 - u_3_0 + u_5_0 <= 8
 mtz_5_3_1:  9 x_5_3_1 - u_3_1 + u_5_1 <= 8
 mtz_5_3_2:  9 x_5_3_2 - u_3_2 + u_5_2 <= 8
 mtz_5_4_0:  9 x_5_4_0 - u_4_0 + u_5_0 <= 8
 mtz_5_4_1:  9 x_5_4_1 - u_4_1 + u_5_1 <= 8
 mtz_5_4_2:  9 x_5_4_2 - u_4_2 + u_5_2 <= 8
 mtz_5_6_0:  9 x_5_6_0 + u_5_0 - u_6_0 <= 8
 mtz_5_6_1:  9 x_5_6_1 + u_5_1 - u_6_1 <= 8
 mtz_5_6_2:  9 x_5_6_2 + u_5_2 - u_6_2 <= 8
 mtz_5_7_0:  9 x_5_7_0 + u_5_0 - u_7_0 <= 8
 mtz_5_7_1:  9 x_5_7_1 + u_5_1 - u_7_1 <= 8
 mtz_5_7_2:  9 x_5_7_2 + u_5_2 - u_7_2 <= 8
 mtz_5_8_0:  9 x_5_8_0 + u_5_0 - u_8_0 <= 8
 mtz_5_8_1:  9 x_5_8_1 + u_5_1 - u_8_1 <= 8
 mtz_5_8_2:  9 x_5_8_2 + u_5_2 - u_8_2 <= 8
 mtz_5_9_0:  9 x_5_9_0 + u_5_0 - u_9_0 <= 8
 mtz_5_9_1:  9 x_5_9_1 + u_5_1 - u_9_1 <= 8
 mtz_5_9_2:  9 x_5_9_2 + u_5_2 - u_9_2 <= 8
 mtz_6_1_0:  9 x_6_1_0 - u_1_0 + u_6_0 <= 8
 mtz_6_1_1:  9 x_6_1_1 - u_1_1 + u_6_1 <= 8
 mtz_6_1_2:  9 x_6_1_2 - u_1_2 + u_6_2 <= 8
 mtz_6_2_0:  9 x_6_2_0 - u_2_0 + u_6_0 <= 8
 mtz_6_2_1:  9 x_6_2_1 - u_2_1 + u_6_1 <= 8
 mtz_6_2_2:  9 x_6_2_2 - u_2_2 + u_6_2 <= 8
 mtz_6_3_0:  9 x_6_3_0 - u_3_0 + u_6_0 <= 8
 mtz_6_3_1:  9 x_6_3_1 - u_3_1 + u_6_1 <= 8
 mtz_6_3_2:  9 x_6_3_2 - u_3_2 + u_6_2 <= 8
 mtz_6_4_0:  9 x_6_4_0 - u_4_0 + u_6_0 <= 8
 mtz_6_4_1:  9 x_6_4_1 - u_4_1 + u_6_1 <= 8
 mtz_6_4_2:  9 x_6_4_2 - u_4_2 + u_6_2 <= 8
 mtz_6_5_0:  9 x_6_5_0 - u_5_0 + u_6_0 <= 8
 mtz_6_5_1:  9 x_6_5_1 - u_5_1 + u_6_1 <= 8
 mtz_6_5_2:  9 x_6_5_2 - u_5_2 + u_6_2 <= 8
 mtz_6_7_0:  9 x_6_7_0 + u_6_0 - u_7_0 <= 8
 mtz_6_7_1:  9 x_6_7_1 + u_6_1 - u_7_1 <= 8
 mtz_6_7_2:  9 x_6_7_2 + u_6_2 - u_7_2 <= 8
 mtz_6_8_0:  9 x_6_8_0 + u_6_0 - u_8_0 <= 8
 mtz_6_8_1:  9 x_6_8_1 + u_6_1 - u_8_1 <= 8
 mtz_6_8_2:  9 x_6_8_2 + u_6_2 - u_8_2 <= 8
 mtz_6_9_0:  9 x_6_9_0 + u_6_0 - u_9_0 <= 8
 mtz_6_9_1:  9 x_6_9_1 + u_6_1 - u_9_1 <= 8
 mtz_6_9_2:  9 x_6_9_2 + u_6_2 - u_9_2 <= 8
 mtz_7_1_0:  9 x_7_1_0 - u_1_0 + u_7_0 <= 8
 mtz_7_1_1:  9 x_7_1_1 - u_1_1 + u_7_1 <= 8
 mtz_7_1_2:  9 x_7_1_2 - u_1_2 + u_7_2 <= 8
 mtz_7_2_0:  9 x_7_2_0 - u_2_0 + u_7_0 <= 8
 mtz_7_2_1:  9 x_7_2_1 - u_2_1 + u_7_1 <= 8
 mtz_7_2_2:  9 x_7_2_2 - u_2_2 + u_7_2 <= 8
 mtz_7_3_0:  9 x_7_3_0 - u_3_0 + u_7_0 <= 8
 mtz_7_3_1:  9 x_7_3_1 - u_3_1 + u_7_1 <= 8
 mtz_7_3_2:  9 x_7_3_2 - u_3_2 + u_7_2 <= 8
 mtz_7_4_0:  9 x_7_4_0 - u_4_0 + u_7_0 <= 8
 mtz_7_4_1:  9 x_7_4_1 - u_4_1 + u_7_1 <= 8
 mtz_7_4_2:  9 x_7_4_2 - u_4_2 + u_7_2 <= 8
 mtz_7_5_0:  9 x_7_5_0 - u_5_0 + u_7_0 <= 8
 mtz_7_5_1:  9 x_7_5_1 - u_5_1 + u_7_1 <= 8
 mtz_7_5_2:  9 x_7_5_2 - u_5_2 + u_7_2 <= 8
 mtz_7_6_0:  9 x_7_6_0 - u_6_0 + u_7_0 <= 8
 mtz_7_6_1:  9 x_7_6_1 - u_6_1 + u_7_1 <= 8
 mtz_7_6_2:  9 x_7_6_2 - u_6_2 + u_7_2 <= 8
 mtz_7_8_0:  9 x_7_8_0 + u_7_0 - u_8_0 <= 8
 mtz_7_8_1:  9 x_7_8_1 + u_7_1 - u_8_1 <= 8
 mtz_7_8_2:  9 x_7_8_2 + u_7_2 - u_8_2 <= 8
 mtz_7_9_0:  9 x_7_9_0 + u_7_0 - u_9_0 <= 8
 mtz_7_9_1:  9 x_7_9_1 + u_7_1 - u_9_1 <= 8
 mtz_7_9_2:  9 x_7_9_2 + u_7_2 - u_9_2 <= 8
 mtz_8_1_0:  9 x_8_1_0 - u_1_0 + u_8_0 <= 8
 mtz_8_1_1:  9 x_8_1_1 - u_1_1 + u_8_1 <= 8
 mtz_8_1_2:  9 x_8_1_2 - u_1_2 + u_8_2 <= 8
 mtz_8_2_0:  9 x_8_2_0 - u_2_0 + u_8_0 <= 8
 mtz_8_2_1:  9 x_8_2_1 - u_2_1 + u_8_1 <= 8
 mtz_8_2_2:  9 x_8_2_2 - u_2_2 + u_8_2 <= 8
 mtz_8_3_0:  9 x_8_3_0 - u_3_0 + u_8_0 <= 8
 mtz_8_3_1:  9 x_8_3_1 - u_3_1 + u_8_1 <= 8
 mtz_8_3_2:  9 x_8_3_2 - u_3_2 + u_8_2 <= 8
 mtz_8_4_0:  9 x_8_4_0 - u_4_0 + u_8_0 <= 8
 mtz_8_4_1:  9 x_8_4_1 - u_4_1 + u_8_1 <= 8
 mtz_8_4_2:  9 x_8_4_2 - u_4_2 + u_8_2 <= 8
 mtz_8_5_0:  9 x_8_5_0 - u_5_0 + u_8_0 <= 8
 mtz_8_5_1:  9 x_8_5_1 - u_5_1 + u_8_1 <= 8
 mtz_8_5_2:  9 x_8_5_2 - u_5_2 + u_8_2 <= 8
 mtz_8_6_0:  9 x_8_6_0 - u_6_0 + u_8_0 <= 8
 mtz_8_6_1:  9 x_8_6_1 - u_6_1 + u_8_1 <= 8
 mtz_8_6_2:  9 x_8_6_2 - u_6_2 + u_8_2 <= 8
 mtz_8_7_0:  9 x_8_7_0 - u_7_0 + u_8_0 <= 8
 mtz_8_7_1:  9 x_8_7_1 - u_7_1 + u_8_1 <= 8
 mtz_8_7_2:  9 x_8_7_2 - u_7_2 + u_8_2 <= 8
 mtz_8_9_0:  9 x_8_9_0 + u_8_0 - u_9_0 <= 8
 mtz_8_9_1:  9 x_8_9_1 + u_8_1 - u_9_1 <= 8
 mtz_8_9_2:  9 x_8_9_2 + u_8_2 - u_9_2 <= 8
 mtz_9_1_0:  9 x_9_1_0 - u_1_0 + u_9_0 <= 8
 mtz_9_1_1:  9 x_9_1_1 - u_1_1 + u_9_1 <= 8
 mtz_9_1_2:  9 x_9_1_2 - u_1_2 + u_9_2 <= 8
 mtz_9_2_0:  9 x_9_2_0 - u_2_0 + u_9_0 <= 8
 mtz_9_2_1:  9 x_9_2_1 - u_2_1 + u_9_1 <= 8
 mtz_9_2_2:  9 x_9_2_2 - u_2_2 + u_9_2 <= 8
 mtz_9_3_0:  9 x_9_3_0 - u_3_0 + u_9_0 <= 8
 mtz_9_3_1:  9 x_9_3_1 - u_3_1 + u_9_1 <= 8
 mtz_9_3_2:  9 x_9_3_2 - u_3_2 + u_9_2 <= 8
 mtz_9_4_0:  9 x_9_4_0 - u_4_0 + u_9_0 <= 8
 mtz_9_4_1:  9 x_9_4_1 - u_4_1 + u_9_1 <= 8
 mtz_9_4_2:  9 x_9_4_2 - u_4_2 + u_9_2 <= 8
 mtz_9_5_0:  9 x_9_5_0 - u_5_0 + u_9_0 <= 8
 mtz_9_5_1:  9 x_9_5_1 - u_5_1 + u_9_1 <= 8
 mtz_9_5_2:  9 x_9_5_2 - u_5_2 + u_9_2 <= 8
 mtz_9_6_0:  9 x_9_6_0 - u_6_0 + u_9_0 <= 8
 mtz_9_6_1:  9 x_9_6_1 - u_6_1 + u_9_1 <= 8
 mtz_9_6_2:  9 x_9_6_2 - u_6_2 + u_9_2 <= 8
 mtz_9_7_0:  9 x_9_7_0 - u_7_0 + u_9_0 <= 8
 mtz_9_7_1:  9 x_9_7_1 - u_7_1 + u_9_1 <= 8
 mtz_9_7_2:  9 x_9_7_2 - u_7_2 + u_9_2 <= 8
 mtz_9_8_0:  9 x_9_8_0 - u_8_0 + u_9_0 <= 8
 mtz_9_8_1:  9 x_9_8_1 - u_8_1 + u_9_1 <= 8
 mtz_9_8_2:  9 x_9_8_2 - u_8_2 + u_9_2 <= 8
Bounds
 0 <= x_0_0_0 <= 1
 0 <= x_0_0_1 <= 1
 0 <= x_0_0_2 <= 1
 0 <= x_1_1_0 <= 1
 0 <= x_1_1_1 <= 1
 0 <= x_1_1_2 <= 1
 0 <= x_2_2_0 <= 1
 0 <= x_2_2_1 <= 1
 0 <= x_2_2_2 <= 1
 0 <= x_3_3_0 <= 1
 0 <= x_3_3_1 <= 1
 0 <= x_3_3_2 <= 1
 0 <= x_4_4_0 <= 1
 0 <= x_4_4_1 <= 1
 0 <= x_4_4_2 <= 1
 0 <= x_5_5_0 <= 1
 0 <= x_5_5_1 <= 1
 0 <= x_5_5_2 <= 1
 0 <= x_6_6_0 <= 1
 0 <= x_6_6_1 <= 1
 0 <= x_6_6_2 <= 1
 0 <= x_7_7_0 <= 1
 0 <= x_7_7_1 <= 1
 0 <= x_7_7_2 <= 1
 0 <= x_8_8_0 <= 1
 0 <= x_8_8_1 <= 1
 0 <= x_8_8_2 <= 1
 0 <= x_9_9_0 <= 1
 0 <= x_9_9_1 <= 1
 0 <= x_9_9_2 <= 1
 0 <= x_0_1_0 <= 1
 0 <= x_0_2_0 <= 1
 0 <= x_0_3_0 <= 1
 0 <= x_0_4_0 <= 1
 0 <= x_0_5_0 <= 1
 0 <= x_0_6_0 <= 1
 0 <= x_0_7_0 <= 1
 0 <= x_0_8_0 <= 1
 0 <= x_0_9_0 <= 1
 0 <= x_1_0_0 <= 1
 0 <= x_2_0_0 <= 1
 0 <= x_3_0_0 <= 1
 0 <= x_4_0_0 <= 1
 0 <= x_5_0_0 <= 1
 0 <= x_6_0_0 <= 1
 0 <= x_7_0_0 <= 1
 0 <= x_8_0_0 <= 1
 0 <= x_9_0_0 <= 1
 0 <= x_0_1_1 <= 1
 0 <= x_0_2_1 <= 1
 0 <= x_0_3_1 <= 1
 0 <= x_0_4_1 <= 1
 0 <= x_0_5_1 <= 1
 0 <= x_0_6_1 <= 1
 0 <= x_0_7_1 <= 1
 0 <= x_0_8_1 <= 1
 0 <= x_0_9_1 <= 1
 0 <= x_1_0_1 <= 1
 0 <= x_2_0_1 <= 1
 0 <= x_3_0_1 <= 1
 0 <= x_4_0_1 <= 1
 0 <= x_5_0_1 <= 1
 0 <= x_6_0_1 <= 1
 0 <= x_7_0_1 <= 1
 0 <= x_8_0_1 <= 1
 0 <= x_9_0_1 <= 1
 0 <= x_0_1_2 <= 1
 0 <= x_0_2_2 <= 1
 0 <= x_0_3_2 <= 1
 0 <= x_0_4_2 <= 1
 0 <= x_0_5_2 <= 1
 0 <= x_0_6_2 <= 1
 0 <= x_0_7_2 <= 1
 0 <= x_0_8_2 <= 1
 0 <= x_0_9_2 <= 1
 0 <= x_1_0_2 <= 1
 0 <= x_2_0_2 <= 1
 0 <= x_3_0_2 <= 1
 0 <= x_4_0_2 <= 1
 0 <= x_5_0_2 <= 1
 0 <= x_6_0_2 <= 1
 0 <= x_7_0_2 <= 1
 0 <= x_8_0_2 <= 1
 0 <= x_9_0_2 <= 1
 0 <= x_1_2_0 <= 1
 0 <= x_1_3_0 <= 1
 0 <= x_1_4_0 <= 1
 0 <= x_1_5_0 <= 1
 0 <= x_1_6_0 <= 1
 0 <= x_1_7_0 <= 1
 0 <= x_1_8_0 <= 1
 0 <= x_1_9_0 <= 1
 0 <= x_2_1_0 <= 1
 0 <= x_3_1_0 <= 1
 0 <= x_4_1_0 <= 1
 0 <= x_5_1_0 <= 1
 0 <= x_6_1_0 <= 1
 0 <= x_7_1_0 <= 1
 0 <= x_8_1_0 <= 1
 0 <= x_9_1_0 <= 1
 0 <= x_1_2_1 <= 1
 0 <= x_1_3_1 <= 1
 0 <= x_1_4_1 <= 1
 0 <= x_1_5_1 <= 1
 0 <= x_1_6_1 <= 1
 0 <= x_1_7_1 <= 1
 0 <= x_1_8_1 <= 1
 0 <= x_1_9_1 <= 1
 0 <= x_2_1_1 <= 1
 0 <= x_3_1_1 <= 1
 0 <= x_4_1_1 <= 1
 0 <= x_5_1_1 <= 1
 0 <= x_6_1_1 <= 1
 0 <= x_7_1_1 <= 1
 0 <= x_8_1_1 <= 1
 0 <= x_9_1_1 <= 1
 0 <= x_1_2_2 <= 1
 0 <= x_1_3_2 <= 1
 0 <= x_1_4_2 <= 1
 0 <= x_1_5_2 <= 1
 0 <= x_1_6_2 <= 1
 0 <= x_1_7_2 <= 1
 0 <= x_1_8_2 <= 1
 0 <= x_1_9_2 <= 1
 0 <= x_2_1_2 <= 1
 0 <= x_3_1_2 <= 1
 0 <= x_4_1_2 <= 1
 0 <= x_5_1_2 <= 1
 0 <= x_6_1_2 <= 1
 0 <= x_7_1_2 <= 1
 0 <= x_8_1_2 <= 1
 0 <= x_9_1_2 <= 1
 0 <= x_2_3_0 <= 1
 0 <= x_2_4_0 <= 1
 0 <= x_2_5_0 <= 1
 0 <= x_2_6_0 <= 1
 0 <= x_2_7_0 <= 1
 0 <= x_2_8_0 <= 1
 0 <= x_2_9_0 <= 1
 0 <= x_3_2_0 <= 1
 0 <= x_4_2_0 <= 1
 0 <= x_5_2_0 <= 1
 0 <= x_6_2_0 <= 1
 0 <= x_7_2_0 <= 1
 0 <= x_8_2_0 <= 1
 0 <= x_9_2_0 <= 1
 0 <= x_2_3_1 <= 1
 0 <= x_2_4_1 <= 1
 0 <= x_2_5_1 <= 1
 0 <= x_2_6_1 <= 1
 0 <= x_2_7_1 <= 1
 0 <= x_2_8_1 <= 1
 0 <= x_2_9_1 <= 1
 0 <= x_3_2_1 <= 1
 0 <= x_4_2_1 <= 1
 0 <= x_5_2_1 <= 1
 0 <= x_6_2_1 <= 1
 0 <= x_7_2_1 <= 1
 0 <= x_8_2_1 <= 1
 0 <= x_9_2_1 <= 1
 0 <= x_2_3_2 <= 1
 0 <= x_2_4_2 <= 1
 0 <= x_2_5_2 <= 1
 0 <= x_2_6_2 <= 1
 0 <= x_2_7_2 <= 1
 0 <= x_2_8_2 <= 1
 0 <= x_2_9_2 <= 1
 0 <= x_3_2_2 <= 1
 0 <= x_4_2_2 <= 1
 0 <= x_5_2_2 <= 1
 0 <= x_6_2_2 <= 1
 0 <= x_7_2_2 <= 1
 0 <= x_8_2_2 <= 1
 0 <= x_9_2_2 <= 1
 0 <= x_3_4_0 <= 1
 0 <= x_3_5_0 <= 1
 0 <= x_3_6_0 <= 1
 0 <= x_3_7_0 <= 1
 0 <= x_3_8_0 <= 1
 0 <= x_3_9_0 <= 1
 0 <= x_4_3_0 <= 1
 0 <= x_5_3_0 <= 1
 0 <= x_6_3_0 <= 1
 0 <= x_7_3_0 <= 1
 0 <= x_8_3_0 <= 1
 0 <= x_9_3_0 <= 1
 0 <= x_3_4_1 <= 1
 0 <= x_3_5_1 <= 1
 0 <= x_3_6_1 <= 1
 0 <= x_3_7_1 <= 1
 0 <= x_3_8_1 <= 1
 0 <= x_3_9_1 <= 1
 0 <= x_4_3_1 <= 1
 0 <= x_5_3_1 <= 1
 0 <= x_6_3_1 <= 1
 0 <= x_7_3_1 <= 1
 0 <= x_8_3_1 <= 1
 0 <= x_9_3_1 <= 1
 0 <= x_3_4_2 <= 1
 0 <= x_3_5_2 <= 1
 0 <= x_3_6_2 <= 1
 0 <= x_3_7_2 <= 1
 0 <= x_3_8_2 <= 1
 0 <= x_3_9_2 <= 1
 0 <= x_4_3_2 <= 1
 0 <= x_5_3_2 <= 1
 0 <= x_6_3_2 <= 1
 0 <= x_7_3_2 <= 1
 0 <= x_8_3_2 <= 1
 0 <= x_9_3_2 <= 1
 0 <= x_4_5_0 <= 1
 0 <= x_4_6_0 <= 1
 0 <= x_4_7_0 <= 1
 0 <= x_4_8_0 <= 1
 0 <= x_4_9_0 <= 1
 0 <= x_5_4_0 <= 1
 0 <= x_6_4_0 <= 1
 0 <= x_7_4_0 <= 1
 0 <= x_8_4_0 <= 1
 0 <= x_9_4_0 <= 1
 0 <= x_4_5_1 <= 1
 0 <= x_4_6_1 <= 1
 0 <= x_4_7_1 <= 1
 0 <= x_4_8_1 <= 1
 0 <= x_4_9_1 <= 1
 0 <= x_5_4_1 <= 1
 0 <= x_6_4_1 <= 1
 0 <= x_7_4_1 <= 1
 0 <= x_8_4_1 <= 1
 0 <= x_9_4_1 <= 1
 0 <= x_4_5_2 <= 1
 0 <= x_4_6_2 <= 1
 0 <= x_4_7_2 <= 1
 0 <= x_4_8_2 <= 1
 0 <= x_4_9_2 <= 1
 0 <= x_5_4_2 <= 1
 0 <= x_6_4_2 <= 1
 0 <= x_7_4_2 <= 1
 0 <= x_8_4_2 <= 1
 0 <= x_9_4_2 <= 1
 0 <= x_5_6_0 <= 1
 0 <= x_5_7_0 <= 1
 0 <= x_5_8_0 <= 1
 0 <= x_5_9_0 <= 1
 0 <= x_6_5_0 <= 1
 0 <= x_7_5_0 <= 1
 0 <= x_8_5_0 <= 1
 0 <= x_9_5_0 <= 1
 0 <= x_5_6_1 <= 1
 0 <= x_5_7_1 <= 1
 0 <= x_5_8_1 <= 1
 0 <= x_5_9_1 <= 1
 0 <= x_6_5_1 <= 1
 0 <= x_7_5_1 <= 1
 0 <= x_8_5_1 <= 1
 0 <= x_9_5_1 <= 1
 0 <= x_5_6_2 <= 1
 0 <= x_5_7_2 <= 1
 0 <= x_5_8_2 <= 1
 0 <= x_5_9_2 <= 1
 0 <= x_6_5_2 <= 1
 0 <= x_7_5_2 <= 1
 0 <= x_8_5_2 <= 1
 0 <= x_9_5_2 <= 1
 0 <= x_6_7_0 <= 1
 0 <= x_6_8_0 <= 1
 0 <= x_6_9_0 <= 1
 0 <= x_7_6_0 <= 1
 0 <= x_8_6_0 <= 1
 0 <= x_9_6_0 <= 1
 0 <= x_6_7_1 <= 1
 0 <= x_6_8_1 <= 1
 0 <= x_6_9_1 <= 1
 0 <= x_7_6_1 <= 1
 0 <= x_8_6_1 <= 1
 0 <= x_9_6_1 <= 1
 0 <= x_6_7_2 <= 1
 0 <= x_6_8_2 <= 1
 0 <= x_6_9_2 <= 1
 0 <= x_7_6_2 <= 1
 0 <= x_8_6_2 <= 1
 0 <= x_9_6_2 <= 1
 0 <= x_7_8_0 <= 1
 0 <= x_7_9_0 <= 1
 0 <= x_8_7_0 <= 1
 0 <= x_9_7_0 <= 1
 0 <= x_7_8_1 <= 1
 0 <= x_7_9_1 <= 1
 0 <= x_8_7_1 <= 1
 0 <= x_9_7_1 <= 1
 0 <= x_7_8_2 <= 1
 0 <= x_7_9_2 <= 1
 0 <= x_8_7_2 <= 1
 0 <= x_9_7_2 <= 1
 0 <= x_8_9_0 <= 1
 0 <= x_9_8_0 <= 1
 0 <= x_8_9_1 <= 1
 0 <= x_9_8_1 <= 1
 0 <= x_8_9_2 <= 1
 0 <= x_9_8_2 <= 1
 0 <= y_0_2 <= 1
 0 <= y_0_1 <= 1
 0 <= y_0_0 <= 1
 0 <= y_1_2 <= 1
 0 <= y_1_1 <= 1
 0 <= y_1_0 <= 1
 0 <= y_2_2 <= 1
 0 <= y_2_1 <= 1
 0 <= y_2_0 <= 1
 0 <= y_3_2 <= 1
 0 <= y_3_1 <= 1
 0 <= y_3_0 <= 1
 0 <= y_4_2 <= 1
 0 <= y_4_1 <= 1
 0 <= y_4_0 <= 1
 0 <= y_5_2 <= 1
 0 <= y_5_1 <= 1
 0 <= y_5_0 <= 1
 0 <= y_6_2 <= 1
 0 <= y_6_1 <= 1
 0 <= y_6_0 <= 1
 1 <= u_1_0 <= 9
 1 <= u_2_0 <= 9
 1 <= u_1_1 <= 9
 1 <= u_2_1 <= 9
 1 <= u_1_2 <= 9
 1 <= u_2_2 <= 9
 1 <= u_3_0 <= 9
 1 <= u_3_1 <= 9
 1 <= u_3_2 <= 9
 1 <= u_4_0 <= 9
 1 <= u_4_1 <= 9
 1 <= u_4_2 <= 9
 1 <= u_5_0 <= 9
 1 <= u_5_1 <= 9
 1 <= u_5_2 <= 9
 1 <= u_6_0 <= 9
 1 <= u_6_1 <= 9
 1 <= u_6_2 <= 9
 1 <= u_7_0 <= 9
 1 <= u_7_1 <= 9
 1 <= u_7_2 <= 9
 1 <= u_8_0 <= 9
 1 <= u_8_1 <= 9
 1 <= u_8_2 <= 9
 1 <= u_9_0 <= 9
 1 <= u_9_1 <= 9
 1 <= u_9_2 <= 9
Binaries
 x_0_0_0  x_0_0_1  x_0_0_2  x_1_1_0  x_1_1_1  x_1_1_2  x_2_2_0  x_2_2_1 
 x_2_2_2  x_3_3_0  x_3_3_1  x_3_3_2  x_4_4_0  x_4_4_1  x_4_4_2  x_5_5_0 
 x_5_5_1  x_5_5_2  x_6_6_0  x_6_6_1  x_6_6_2  x_7_7_0  x_7_7_1  x_7_7_2 
 x_8_8_0  x_8_8_1  x_8_8_2  x_9_9_0  x_9_9_1  x_9_9_2  x_0_1_0  x_0_2_0 
 x_0_3_0  x_0_4_0  x_0_5_0  x_0_6_0  x_0_7_0  x_0_8_0  x_0_9_0  x_1_0_0 
 x_2_0_0  x_3_0_0  x_4_0_0  x_5_0_0  x_6_0_0  x_7_0_0  x_8_0_0  x_9_0_0 
 x_0_1_1  x_0_2_1  x_0_3_1  x_0_4_1  x_0_5_1  x_0_6_1  x_0_7_1  x_0_8_1 
 x_0_9_1  x_1_0_1  x_2_0_1  x_3_0_1  x_4_0_1  x_5_0_1  x_6_0_1  x_7_0_1 
 x_8_0_1  x_9_0_1  x_0_1_2  x_0_2_2  x_0_3_2  x_0_4_2  x_0_5_2  x_0_6_2 
 x_0_7_2  x_0_8_2  x_0_9_2  x_1_0_2  x_2_0_2  x_3_0_2  x_4_0_2  x_5_0_2 
 x_6_0_2  x_7_0_2  x_8_0_2  x_9_0_2  x_1_2_0  x_1_3_0  x_1_4_0  x_1_5_0 
 x_1_6_0  x_1_7_0  x_1_8_0  x_1_9_0  x_2_1_0  x_3_1_0  x_4_1_0  x_5_1_0 
 x_6_1_0  x_7_1_0  x_8_1_0  x_9_1_0  x_1_2_1  x_1_3_1  x_1_4_1  x_1_5_1 
 x_1_6_1  x_1_7_1  x_1_8_1  x_1_9_1  x_2_1_1  x_3_1_1  x_4_1_1  x_5_1_1 
 x_6_1_1  x_7_1_1  x_8_1_1  x_9_1_1  x_1_2_2  x_1_3_2  x_1_4_2  x_1_5_2 
 x_1_6_2  x_1_7_2  x_1_8_2  x_1_9_2  x_2_1_2  x_3_1_2  x_4_1_2  x_5_1_2 
 x_6_1_2  x_7_1_2  x_8_1_2  x_9_1_2  x_2_3_0  x_2_4_0  x_2_5_0  x_2_6_0 
 x_2_7_0  x_2_8_0  x_2_9_0  x_3_2_0  x_4_2_0  x_5_2_0  x_6_2_0  x_7_2_0 
 x_8_2_0  x_9_2_0  x_2_3_1  x_2_4_1  x_2_5_1  x_2_6_1  x_2_7_1  x_2_8_1 
 x_2_9_1  x_3_2_1  x_4_2_1  x_5_2_1  x_6_2_1  x_7_2_1  x_8_2_1  x_9_2_1 
 x_2_3_2  x_2_4_2  x_2_5_2  x_2_6_2  x_2_7_2  x_2_8_2  x_2_9_2  x_3_2_2 
 x_4_2_2  x_5_2_2  x_6_2_2  x_7_2_2  x_8_2_2  x_9_2_2  x_3_4_0  x_3_5_0 
 x_3_6_0  x_3_7_0  x_3_8_0  x_3_9_0  x_4_3_0  x_5_3_0  x_6_3_0  x_7_3_0 
 x_8_3_0  x_9_3_0  x_3_4_1  x_3_5_1  x_3_6_1  x_3_7_1  x_3_8_1  x_3_9_1 
 x_4_3_1  x_5_3_1  x_6_3_1  x_7_3_1  x_8_3_1  x_9_3_1  x_3_4_2  x_3_5_2 
 x_3_6_2  x_3_7_2  x_3_8_2  x_3_9_2  x_4_3_2  x_5_3_2  x_6_3_2  x_7_3_2 
 x_8_3_2  x_9_3_2  x_4_5_0  x_4_6_0  x_4_7_0  x_4_8_0  x_4_9_0  x_5_4_0 
 x_6_4_0  x_7_4_0  x_8_4_0  x_9_4_0  x_4_5_1  x_4_6_1  x_4_7_1  x_4_8_1 
 x_4_9_1  x_5_4_1  x_6_4_1  x_7_4_1  x_8_4_1  x_9_4_1  x_4_5_2  x_4_6_2 
 x_4_7_2  x_4_8_2  x_4_9_2  x_5_4_2  x_6_4_2  x_7_4_2  x_8_4_2  x_9_4_2 
 x_5_6_0  x_5_7_0  x_5_8_0  x_5_9_0  x_6_5_0  x_7_5_0  x_8_5_0  x_9_5_0 
 x_5_6_1  x_5_7_1  x_5_8_1  x_5_9_1  x_6_5_1  x_7_5_1  x_8_5_1  x_9_5_1 
 x_5_6_2  x_5_7_2  x_5_8_2  x_5_9_2  x_6_5_2  x_7_5_2  x_8_5_2  x_9_5_2 
 x_6_7_0  x_6_8_0  x_6_9_0  x_7_6_0  x_8_6_0  x_9_6_0  x_6_7_1  x_6_8_1 
 x_6_9_1  x_7_6_1  x_8_6_1  x_9_6_1  x_6_7_2  x_6_8_2  x_6_9_2  x_7_6_2 
 x_8_6_2  x_9_6_2  x_7_8_0  x_7_9_0  x_8_7_0  x_9_7_0  x_7_8_1  x_7_9_1 
 x_8_7_1  x_9_7_1  x_7_8_2  x_7_9_2  x_8_7_2  x_9_7_2  x_8_9_0  x_9_8_0 
 x_8_9_1  x_9_8_1  x_8_9_2  x_9_8_2  y_0_2  y_0_1  y_0_0  y_1_2  y_1_1  y_1_0 
 y_2_2  y_2_1  y_2_0  y_3_2  y_3_1  y_3_0  y_4_2  y_4_1  y_4_0  y_5_2  y_5_1 
 y_5_0  y_6_2  y_6_1  y_6_0 
Generals
 u_1_0  u_2_0  u_1_1  u_2_1  u_1_2  u_2_2  u_3_0  u_3_1  u_3_2  u_4_0  u_4_1 
 u_4_2  u_5_0  u_5_1  u_5_2  u_6_0  u_6_1  u_6_2  u_7_0  u_7_1  u_7_2  u_8_0 
 u_8_1  u_8_2  u_9_0  u_9_1  u_9_2 
End
